NAME          FUSHOT
ROWS
 G  N
 G  AM-N
 G  NI-N
 G  UR-N
 G  P
 G  K
 G  S
 G  ZN
 G  WATR
 G  DEN
 E  HCAP
 E  HSOL
 E  HREA
 G  MINT
 G  MAXT
 G  32F
 G  32FK
 G  77F
 G  77FK
 G  MAXA
 E  WT
 N  COST
 N  PRICE
COLUMNS
*234567890123456789012345678901234567890123456789012345678901
    HOTWATER  WATR          1.000000   DEN           0.120048   
    HOTWATER  HCAP          1.000000   HREA          1.260000   
    HOTWATER  32F          -1.000000   32FK         -1.000000   
    HOTWATER  77F          -1.000000   77FK         -1.000000   
    HOTWATER  WT            1.000000   COST         10.000000   
    HOTWATER  PRICE        43.750000   SCALE      2000.000000   
    EVAP      WATR         -1.000000   DEN          -0.120048   
    EVAP      HCAP         -1.000000   HSOL         -0.400000   
    EVAP      32F           1.000000   32FK          1.000000   
    EVAP      77F           1.000000   77FK          1.000000   
    EVAP      WT           -1.000000   COST         25.000000   
    EVAP      PRICE        25.000000   SCALE      2000.000000   
    WATER     WATR          1.000000   DEN           0.120048   
    WATER     HCAP          1.000000   HSOL          0.400000   
    WATER     32F          -1.000000   32FK         -1.000000   
    WATER     77F          -1.000000   77FK         -1.000000   
    WATER     WT            1.000000   COST          0.010000   
    WATER     PRICE        25.012500   SCALE      2000.000000   
    I005400   P             0.540000   WATR          0.250000   
    I005400   DEN           0.065600   HCAP          0.860000   
    I005400   HREA          2.662000   32F           0.861042   
    I005400   32FK          0.861042   77F           0.829268   
    I005400   77FK          0.829268   MAXA          0.219000   
    I005400   WT            1.000000   COST        165.000000   
    I005400   PRICE       231.250000   SCALE      2000.000000   
    I200000   N             0.200000   AM-N          0.200000   
    I200000   WATR          0.757000   DEN           0.133387   
    I200000   HCAP          0.990000   HREA          5.164000   
    I200000   32F          -0.757000   32FK         -0.757000   
    I200000   77F          -0.757000   77FK         -0.757000   
    I200000   MAXA         -0.243000   WT            1.000000   
    I200000   COST        125.000000   PRICE       181.250000   
    I200000   SCALE      2000.000000   
    I320000   N             0.320000   AM-N          0.080000   
    I320000   NI-N          0.080000   UR-N          0.160000   
    I320000   WATR          0.200000   DEN           0.090262   
    I320000   HCAP          0.492000   32F          -0.107143   
    I320000   32FK          0.632653   77F          -0.232982   
    I320000   77FK         -0.126638   WT            1.000000   
    I320000   COST        132.000000   PRICE       190.000000   
    I320000   SCALE      2000.000000   
    I460000   N             0.460000   UR-N          0.460000   
    I460000   DEN           0.089588   HCAP          0.320000   
    I460000   HSOL          2.160000   32F           1.421310   
    I460000   32FK          1.421310   77F           0.838235   
    I460000   77FK          0.838235   WT            1.000000   
    I460000   COST        145.000000   PRICE       206.250000   
    I460000   SCALE      2000.000000   
    I113700   N             0.110000   P             0.370000   
    I113700   WATR          0.400000   DEN           0.085749   
    I113700   HCAP          0.500000   32F          -0.250000   
    I113700   32FK         -0.250000   77F          -0.299883   
    I113700   77FK         -0.299883   WT            1.000000   
    I113700   COST        212.000000   PRICE       290.000000   
    I113700   SCALE      2000.000000   
    I000062   K             0.624000   DEN           0.060024   
    I000062   HCAP          0.162000   HSOL          2.120000   
    I000062   32F           3.424780   32FK          3.424780   
    I000062   77F           2.690040   77FK          2.690040   
    I000062   WT            1.000000   COST        118.000000   
    I000062   PRICE       172.500000   SCALE      2000.000000   
    I120000   N             0.120000   AM-N          0.120000   
    I120000   S             0.260000   WATR          0.400000   
    I120000   DEN           0.090262   HCAP          0.440000   
    I120000   32F           0.005025   32FK          0.005025   
    I120000   77F          -0.104478   77FK         -0.104478   
    I120000   WT            1.000000   COST        125.000000   
    I120000   PRICE       181.250000   SCALE      2000.000000   
    I100000   N             0.100000   AM-N          0.100000   
    I100000   S             0.050000   ZN            0.100000   
    I100000   WATR          0.630000   DEN           0.094526   
    I100000   HCAP          0.740000   77F          -0.119048   
    I100000   77FK         -0.119048   WT            1.000000   
    I100000   COST        185.000000   PRICE       256.250000   
    I100000   SCALE      2000.000000   
    I000025   K             0.250000   S             0.170000   
    I000025   WATR          0.510000   DEN           0.082225   
    I000025   HCAP          0.600000   32F          -0.014085   
    I000025   32FK         -0.014085   77F          -0.195402   
    I000025   77FK         -0.195402   WT            1.000000   
    I000025   COST        350.000000   PRICE       462.500000   
    I000025   SCALE      2000.000000   
    I93SACID  S             0.320000   WATR          0.070000   
    I93SACID  DEN           0.066693   HCAP          0.360000   
    I93SACID  HREA          8.500000   32F           1.933750   
    I93SACID  32FK         16.547200   77F           1.801200   
    I93SACID  77FK         13.761900   MAXA          0.311000   
    I93SACID  WT            1.000000   COST        100.000000   
    I93SACID  PRICE       150.000000   SCALE      2000.000000   
    HEATCAP   HCAP         -1.000000   MINT          0.150000   
    HEATCAP   MAXT          0.800000   COST          0.000000   
    HEATCAP   PRICE         0.000000   SCALE         1.000000   
    HEATSOL   HSOL         -2.000000   MINT         -1.000000   
    HEATSOL   MAXT          1.000000   COST          0.000000   
    HEATSOL   PRICE         0.000000   SCALE         1.000000   
    HEATREA   HREA         -2.000000   MINT          1.000000   
    HEATREA   MAXT         -1.000000   COST          0.000000   
    HEATREA   PRICE         0.000000   SCALE         1.000000   
    PRODUCT   WT           -1.000000   COST          0.010000   
    PRODUCT   PRICE         0.000000   SCALE         1.000000   
*234567890123456789012